(set-logic QF_S)
(set-option :strings-exp true)
(set-option :produce-models true)
(declare-fun sigmaStar_0 () String)
(declare-fun sigmaStar_1 () String)
(declare-fun sigmaStar_2 () String)
(declare-fun literal_8 () String)
(assert (= literal_8 "\x3c\x74\x64\x3e\x75\x73\x65\x64\x69\x6e\x6e\x70\x6c\x61\x63\x65\x73"))
(assert (str.in.re literal_8 (re.++ (re.* re.allchar) (re.++ (str.to.re "\x5c\x3c\x53\x43\x52\x49\x50\x54") (re.* re.allchar)))))
(check-sat)
(get-model)
